unsat
(:eliminated-applications 2
 :eliminated-vars         1
 :max-memory              18.05
 :memory                  17.95
 :nlsat-conflicts         4
 :nlsat-propagations      13
 :nlsat-stages            4
 :num-allocs              28046
 :rlimit-count            2388
 :time                    0.00
 :total-time              0.01)
